# Objective value = 66
WA1n 0
WA1p 0
WA2n 1
WA2p 0
WB1n 0
WB1p 0
WB2n 1
WB2p 0
WC1n 1
WC1p 0
WC2n 1
WC2p 0
WD1n 1
WD1p 0
WD2n 1
WD2p 0
WE1n 1
WE1p 0
WE2n 1
WE2p 0
WF1n 4
WF1p 0
WF2n 0
WF2p 0
WG1n 6
WG1p 0
WG2n 0
WG2p 0
WH1n 6
WH1p 0
WH2n 0
WH2p 0
WI1n 6
WI1p 0
WI2n 0
WI2p 0
WJ1n 6
WJ1p 0
WJ2n 0
WJ2p 0
WK1n 6
WK1p 0
WK2n 0
WK2p 0
WL1n 6
WL1p 0
WL2n 0
WL2p 0
WM1n 6
WM1p 0
WM2n 0
WM2p 0
WN1n 0
WN1p 6
WN2n 0
WN2p 0
WT1n 0
WT1p 1
WT2n 0
WT2p 0
100 104
a 1
b 1
c 1
d 1
e 1
f 1
g 1
h 1
i 1
j 1
k 1
l 1
m 0
n 0
o 0
p 0
q 0
r 0
s 0
t 0
u 0
v 0
w 0
x 0
y 0
z 0
aa 1
ab 1
ac 1
ad 1
